NAME          DCAP_2_3_3_500_SS208
ROWS
 N  OBJ
 L  CON1
 L  CON2
 L  CON3
 L  CON4
 L  CON5
 L  CON6
 L  CON7
 L  CON8
 L  CON9
 L  CON10
 L  CON11
 L  CON12
 E  CON13
 E  CON14
 E  CON15
 E  CON16
 E  CON17
 E  CON18
 E  CON19
 E  CON20
 E  CON21
COLUMNS
    x[1,1]    OBJ       6.180167      CON1      1.000000    
    x[1,1]    CON7      -1.000000     CON8      -1.000000   
    x[1,1]    CON9      -1.000000   
    x[1,2]    OBJ       6.563535      CON2      1.000000    
    x[1,2]    CON8      -1.000000     CON9      -1.000000   
    x[1,3]    OBJ       7.443064      CON3      1.000000    
    x[1,3]    CON9      -1.000000   
    x[2,1]    OBJ       6.732585      CON4      1.000000    
    x[2,1]    CON10     -1.000000     CON11     -1.000000   
    x[2,1]    CON12     -1.000000   
    x[2,2]    OBJ       5.039546      CON5      1.000000    
    x[2,2]    CON11     -1.000000     CON12     -1.000000   
    x[2,3]    OBJ       6.054841      CON6      1.000000    
    x[2,3]    CON12     -1.000000   
    MARKER    'MARKER'                'INTORG'
    u[1,1]    OBJ       48.076654     CON1      -1.000000   
    u[1,2]    OBJ       20.066487     CON2      -1.000000   
    u[1,3]    OBJ       32.230043     CON3      -1.000000   
    u[2,1]    OBJ       49.996186     CON4      -1.000000   
    u[2,2]    OBJ       49.466655     CON5      -1.000000   
    u[2,3]    OBJ       27.484319     CON6      -1.000000   
    y[1,1,1]  OBJ       5.448268      CON7      0.732713    
    y[1,1,1]  CON13     1.000000    
    y[1,1,2]  OBJ       8.330716      CON8      1.449001    
    y[1,1,2]  CON14     1.000000    
    y[1,1,3]  OBJ       8.009116      CON9      0.990509    
    y[1,1,3]  CON15     1.000000    
    y[1,2,1]  OBJ       9.306955      CON7      1.460171    
    y[1,2,1]  CON16     1.000000    
    y[1,2,2]  OBJ       5.309901      CON8      1.065576    
    y[1,2,2]  CON17     1.000000    
    y[1,2,3]  OBJ       7.274679      CON9      1.100149    
    y[1,2,3]  CON18     1.000000    
    y[1,3,1]  OBJ       7.001623      CON7      0.683515    
    y[1,3,1]  CON19     1.000000    
    y[1,3,2]  OBJ       8.354607      CON8      1.386674    
    y[1,3,2]  CON20     1.000000    
    y[1,3,3]  OBJ       6.108528      CON9      0.656612    
    y[1,3,3]  CON21     1.000000    
    y[2,1,1]  OBJ       6.570378      CON10     0.732713    
    y[2,1,1]  CON13     1.000000    
    y[2,1,2]  OBJ       6.473220      CON11     1.449001    
    y[2,1,2]  CON14     1.000000    
    y[2,1,3]  OBJ       8.586979      CON12     0.990509    
    y[2,1,3]  CON15     1.000000    
    y[2,2,1]  OBJ       5.040199      CON10     1.460171    
    y[2,2,1]  CON16     1.000000    
    y[2,2,2]  OBJ       9.996916      CON11     1.065576    
    y[2,2,2]  CON17     1.000000    
    y[2,2,3]  OBJ       8.116393      CON12     1.100149    
    y[2,2,3]  CON18     1.000000    
    y[2,3,1]  OBJ       9.466521      CON10     0.683515    
    y[2,3,1]  CON19     1.000000    
    y[2,3,2]  OBJ       6.568958      CON11     1.386674    
    y[2,3,2]  CON20     1.000000    
    y[2,3,3]  OBJ       7.981882      CON12     0.656612    
    y[2,3,3]  CON21     1.000000    
    z[1,1]    OBJ       551.611719    CON13     1.000000    
    z[1,2]    OBJ       787.721027    CON14     1.000000    
    z[1,3]    OBJ       693.824566    CON15     1.000000    
    z[2,1]    OBJ       505.556096    CON16     1.000000    
    z[2,2]    OBJ       847.542085    CON17     1.000000    
    z[2,3]    OBJ       897.000107    CON18     1.000000    
    z[3,1]    OBJ       583.091090    CON19     1.000000    
    z[3,2]    OBJ       584.471700    CON20     1.000000    
    z[3,3]    OBJ       731.716333    CON21     1.000000    
    MARKER    'MARKER'                 'INTEND'
RHS
    RHS       CON1      -0.000000     CON2      -0.000000   
    RHS       CON3      -0.000000     CON4      -0.000000   
    RHS       CON5      -0.000000     CON6      -0.000000   
    RHS       CON7      -0.000000     CON8      -0.000000   
    RHS       CON9      -0.000000     CON10     -0.000000   
    RHS       CON11     -0.000000     CON12     -0.000000   
    RHS       CON13     1.000000      CON14     1.000000    
    RHS       CON15     1.000000      CON16     1.000000    
    RHS       CON17     1.000000      CON18     1.000000    
    RHS       CON19     1.000000      CON20     1.000000    
    RHS       CON21     1.000000    
BOUNDS
 BV BOUND     u[1,1]  
 BV BOUND     u[1,2]  
 BV BOUND     u[1,3]  
 BV BOUND     u[2,1]  
 BV BOUND     u[2,2]  
 BV BOUND     u[2,3]  
 BV BOUND     y[1,1,1]
 BV BOUND     y[1,1,2]
 BV BOUND     y[1,1,3]
 BV BOUND     y[1,2,1]
 BV BOUND     y[1,2,2]
 BV BOUND     y[1,2,3]
 BV BOUND     y[1,3,1]
 BV BOUND     y[1,3,2]
 BV BOUND     y[1,3,3]
 BV BOUND     y[2,1,1]
 BV BOUND     y[2,1,2]
 BV BOUND     y[2,1,3]
 BV BOUND     y[2,2,1]
 BV BOUND     y[2,2,2]
 BV BOUND     y[2,2,3]
 BV BOUND     y[2,3,1]
 BV BOUND     y[2,3,2]
 BV BOUND     y[2,3,3]
 BV BOUND     z[1,1]  
 BV BOUND     z[1,2]  
 BV BOUND     z[1,3]  
 BV BOUND     z[2,1]  
 BV BOUND     z[2,2]  
 BV BOUND     z[2,3]  
 BV BOUND     z[3,1]  
 BV BOUND     z[3,2]  
 BV BOUND     z[3,3]  
ENDATA
